num_servers = 9;
sid = [0, 1, 2, 3, 4, 5, 6, 7, 8];
scpu = [5, 5, 5, 5, 5, 5, 5, 5, 5];
sram = [9, 10, 16, 9, 6, 9, 8, 16, 6];

num_vms = 24;
vjob = [0, 1, 2, 2, 2, 2, 2, 3, 4, 4, 5, 5, 5, 5, 5, 6, 6, 6, 6, 6, 7, 8, 9, 10];
vindex = [0, 0, 0, 1, 2, 3, 4, 0, 0, 1, 0, 1, 2, 3, 4, 0, 1, 2, 3, 4, 0, 0, 0, 0];
vcpu = [2, 1, 1, 1, 1, 1, 2, 1, 1, 1, 1, 2, 1, 1, 1, 1, 1, 1, 1, 1, 1, 1, 1, 1];
vram = [1, 1, 4, 1, 3, 1, 5, 1, 1, 1, 1, 4, 1, 1, 1, 1, 5, 1, 1, 1, 1, 1, 1, 1];
vac = [true, true, true, true, true, true, true, true, true, true, true, true, true, true, true, true, true, true, true, true, true, true, true, true];
